1268779
94,31,50,83,58,1,80,45,93,106,15,28,51,33,81,100,97,34,0,4,44,89,23,108,9,65,76,8,36,25,37,40,71,56,74,85,26,68,69,13,38,30,48,10,90,88,101,53,57,103,96,46,6,87,64,59,11,35,7,27,39,67,54,105,32,77,107,41,49,17,72,75,98,70,104,86,61,18,95,92,12,20,47,79,16,52,99,21,63,22,14,73,55,91,3,66,78,19,24,82,2,62,43,102,29,5,60,84,42
